122
100
1
23
16
23
8
17
9
4
13
8
3
18
24
13
12
1
7
9
5
8
19
24
6
10
3
24
25
2
20
25
18
2
15
2
12
13
22
4
4
14
1
16
4
5
14
18
12
7
1
1
18
14
21
2
7
1
14
12
22
8
2
16
15
19
15
14
3
4
8
15
12
17
16
13
19
2
15
20
14
4
6
13
14
4
6
1
17
18
22
23
19
25
19
24
13
15
15
14
1
14
17
6
5
24
12
18
21
13
10
9
5
15
19
21
11
16
8
9
6
16
19
10
